Version identifier: 20.1.0.0 | 2020-11-10 | 9bedb6d68
Tried aggregator 3 times.
MIP Presolve eliminated 1256 rows and 657 columns.
MIP Presolve modified 2980 coefficients.
Aggregator did 143 substitutions.
Reduced MIP has 1810 rows, 1415 columns, and 5940 nonzeros.
Reduced MIP has 264 binaries, 1151 generals, 0 SOSs, and 0 indicators.
Presolve time = 0.02 sec. (8.58 ticks)
Probing fixed 40 vars, tightened 368 bounds.
Probing time = 0.00 sec. (1.22 ticks)
Tried aggregator 2 times.
Detecting symmetries...
MIP Presolve eliminated 774 rows and 66 columns.
MIP Presolve modified 143 coefficients.
Aggregator did 18 substitutions.
Reduced MIP has 1018 rows, 1331 columns, and 3322 nonzeros.
Reduced MIP has 380 binaries, 951 generals, 0 SOSs, and 0 indicators.
Presolve time = 0.01 sec. (4.79 ticks)
Probing time = 0.00 sec. (0.31 ticks)
Clique table members: 85.
MIP emphasis: balance optimality and feasibility.
MIP search method: dynamic search.
Parallel mode: deterministic, using up to 24 threads.
Root relaxation solution time = 0.01 sec. (3.18 ticks)

        Nodes                                         Cuts/
   Node  Left     Objective  IInf  Best Integer    Best Bound    ItCnt     Gap

*     0+    0                           40.0000        0.0000           100.00%
      0     0        0.0000    65       40.0000        0.0000      353  100.00%
*     0+    0                           21.0000        0.0000           100.00%
      0     0        0.0104   291       21.0000      Cuts: 88      696   99.95%
*     0+    0                           12.0000        0.0104            99.91%
      0     0        1.0000   227       12.0000     Cuts: 170      832   91.67%
      0     0        1.0000   238       12.0000     Cuts: 105      939   91.67%
*     0+    0                           10.0000        1.0000            90.00%
      0     0        cutoff             10.0000       10.0000      997    0.00%
Elapsed time = 0.86 sec. (103.03 ticks, tree = 0.01 MB, solutions = 4)

Clique cuts applied:  6
Cover cuts applied:  9
Implied bound cuts applied:  34
Flow cuts applied:  9
Mixed integer rounding cuts applied:  31
Zero-half cuts applied:  133
Lift and project cuts applied:  6
Gomory fractional cuts applied:  10

Root node processing (before b&c):
  Real time             =    0.86 sec. (103.17 ticks)
Parallel b&c, 24 threads:
  Real time             =    0.00 sec. (0.00 ticks)
  Sync time (average)   =    0.00 sec.
  Wait time (average)   =    0.00 sec.
                          ------------
Total (root+branch&cut) =    0.86 sec. (103.17 ticks)

Solution status = Optimal
Solution LB = 10
Solution UB = 10
Runtime = 0.862477 seconds
	Command being timed: "/home/min/git_repos/CS598MEBProject/CNT-ILP/build/cnt -s 2 ./output/k8_n20/simC_c1_k8_n20_u2_s2_del04.input-left.cnp"
	User time (seconds): 11.95
	System time (seconds): 0.10
	Percent of CPU this job got: 1330%
	Elapsed (wall clock) time (h:mm:ss or m:ss): 0:00.90
	Average shared text size (kbytes): 0
	Average unshared data size (kbytes): 0
	Average stack size (kbytes): 0
	Average total size (kbytes): 0
	Maximum resident set size (kbytes): 102952
	Average resident set size (kbytes): 0
	Major (requiring I/O) page faults: 0
	Minor (reclaiming a frame) page faults: 22920
	Voluntary context switches: 7406
	Involuntary context switches: 2131
	Swaps: 0
	File system inputs: 0
	File system outputs: 16
	Socket messages sent: 0
	Socket messages received: 0
	Signals delivered: 0
	Page size (bytes): 4096
	Exit status: 0
